p cnf 6 3
c        1 string_MICROPY_CONFIGFILE_EQ_mpconfigport_minimal.h
c        2 int_MICROPY_HEAP_SIZE_EQ_16384
c        3 int_MICROPY_HEAP_SIZE_EQ_OTHERVAL
c        4 boolean_MICROPY_VFS_LFS2
c        5 boolean_MICROPY_VFS_LFS1
c        6 boolean_MICROPY_VFS_FAT
-3 -4 0
3 4 0
2 0
